NAME: random-90-27858
TYPE: TSP
COMMENT: size=90 seed=27858
DIMENSION: 182
EDGE_WEIGHT_TYPE: EUC_2D
NODE_COORD_SECTION
+0 406 34
-0 406 34
+1 813 323
-1 182 907
+2 753 736
-2 619 127
+3 733 975
-3 463 442
+4 254 24
-4 113 382
+5 364 598
-5 993 466
+6 396 201
-6 975 772
+7 692 579
-7 953 957
+8 79 752
-8 245 593
+9 254 258
-9 406 899
+10 32 539
-10 437 346
+11 80 682
-11 12 116
+12 193 727
-12 467 998
+13 383 226
-13 968 634
+14 601 286
-14 524 285
+15 429 490
-15 888 703
+16 463 507
-16 408 95
+17 530 576
-17 328 151
+18 284 475
-18 391 526
+19 243 323
-19 192 970
+20 203 328
-20 708 692
+21 597 871
-21 767 56
+22 184 493
-22 392 683
+23 924 950
-23 67 779
+24 415 172
-24 10 468
+25 562 981
-25 671 775
+26 92 689
-26 475 386
+27 716 390
-27 264 483
+28 707 492
-28 501 5
+29 686 220
-29 774 945
+30 582 3
-30 951 837
+31 954 766
-31 785 839
+32 915 34
-32 513 415
+33 720 956
-33 130 171
+34 423 373
-34 739 326
+35 187 93
-35 233 737
+36 904 431
-36 470 390
+37 549 125
-37 854 306
+38 540 794
-38 761 424
+39 699 206
-39 391 424
+40 646 164
-40 839 346
+41 74 306
-41 753 620
+42 463 962
-42 770 268
+43 605 58
-43 739 701
+44 197 761
-44 935 625
+45 491 986
-45 231 224
+46 935 918
-46 564 290
+47 885 653
-47 736 726
+48 555 645
-48 18 753
+49 595 416
-49 596 238
+50 481 496
-50 991 332
+51 778 97
-51 41 157
+52 995 128
-52 772 233
+53 924 317
-53 891 446
+54 282 212
-54 624 693
+55 529 369
-55 881 856
+56 608 522
-56 692 998
+57 375 113
-57 889 762
+58 661 853
-58 175 995
+59 618 895
-59 229 763
+60 708 287
-60 62 411
+61 970 592
-61 57 151
+62 734 8
-62 800 876
+63 296 912
-63 81 950
+64 410 725
-64 52 912
+65 899 308
-65 171 221
+66 981 248
-66 153 724
+67 420 953
-67 311 238
+68 180 795
-68 458 162
+69 257 140
-69 4 280
+70 667 691
-70 411 496
+71 126 653
-71 537 893
+72 250 973
-72 150 764
+73 387 306
-73 497 149
+74 770 669
-74 7 428
+75 909 367
-75 343 66
+76 116 697
-76 479 170
+77 463 147
-77 769 682
+78 696 348
-78 323 27
+79 658 950
-79 884 104
+80 917 82
-80 972 537
+81 570 368
-81 682 225
+82 94 210
-82 492 523
+83 110 976
-83 885 412
+84 272 220
-84 970 295
+85 882 154
-85 291 309
+86 693 458
-86 402 931
+87 204 884
-87 272 484
+88 276 343
-88 525 361
+89 757 964
-89 252 962
+90 354 364
-90 0 630
PRECEDENCE_SECTION
+0 -0
+1 -1
+2 -2
+3 -3
+4 -4
+5 -5
+6 -6
+7 -7
+8 -8
+9 -9
+10 -10
+11 -11
+12 -12
+13 -13
+14 -14
+15 -15
+16 -16
+17 -17
+18 -18
+19 -19
+20 -20
+21 -21
+22 -22
+23 -23
+24 -24
+25 -25
+26 -26
+27 -27
+28 -28
+29 -29
+30 -30
+31 -31
+32 -32
+33 -33
+34 -34
+35 -35
+36 -36
+37 -37
+38 -38
+39 -39
+40 -40
+41 -41
+42 -42
+43 -43
+44 -44
+45 -45
+46 -46
+47 -47
+48 -48
+49 -49
+50 -50
+51 -51
+52 -52
+53 -53
+54 -54
+55 -55
+56 -56
+57 -57
+58 -58
+59 -59
+60 -60
+61 -61
+62 -62
+63 -63
+64 -64
+65 -65
+66 -66
+67 -67
+68 -68
+69 -69
+70 -70
+71 -71
+72 -72
+73 -73
+74 -74
+75 -75
+76 -76
+77 -77
+78 -78
+79 -79
+80 -80
+81 -81
+82 -82
+83 -83
+84 -84
+85 -85
+86 -86
+87 -87
+88 -88
+89 -89
+90 -90
EOF
